40
    26    77    17    78    22    74    68    72    92    21    27    38    47    65    56    89    28     6    98    38     3    98    73     4    69    48    78     7    51    15    91    71   100    13    65    24   100     7    34    94
     7     4     1     3     3     6     5     2    10     8     5     6     8     3     8     7     4     3    10     1     6     5     4     4     6    10     5     3     9     7     1     5     7     2     4     9     7     5    10     5
   557  1428     0     0     0   759     0     0     0     0     0     0   904   909     0   500     0  1016     0  1431     0   916   719   290  1306     0    19   543    64   599   891    67   150   548   609     0  1338   493  1399   739
